
Gurobi 8.1.0 (linux64, Python) logging started Sun Dec  5 17:23:19 2021


Gurobi 8.1.0 (linux64, Python) logging started Sun Dec  5 17:23:51 2021


Gurobi 8.1.0 (linux64, Python) logging started Sun Dec  5 17:26:07 2021


Gurobi 8.1.0 (linux64, Python) logging started Sun Dec  5 17:26:41 2021


Gurobi 8.1.0 (linux64, Python) logging started Sun Dec  5 17:30:36 2021


Gurobi 8.1.0 (linux64, Python) logging started Sun Dec  5 17:31:31 2021

